10
0, 377, 616, 213, 553, 259, 364, 287, 509, 639
377, 0, 682, 546, 578, 154, 575, 652, 228, 914
616, 682, 0, 799, 109, 713, 296, 800, 556, 462
213, 546, 799, 0, 750, 398, 518, 127, 711, 713
553, 578, 109, 750, 0, 620, 285, 767, 447, 528
259, 154, 713, 398, 620, 0, 542, 511, 364, 863
364, 575, 296, 518, 285, 542, 0, 505, 556, 342
287, 652, 800, 127, 767, 511, 505, 0, 796, 639
509, 228, 556, 711, 447, 364, 556, 796, 0, 893
639, 914, 462, 713, 528, 863, 342, 639, 893, 0
